p cnf 1604 451.0
001 002 003 004 0
101 102 103 104 0
201 202 203 204 0
301 302 303 304 0
401 402 403 404 0
501 502 503 504 0
601 602 603 604 0
701 702 703 704 0
801 802 803 804 0
901 902 903 904 0
1001 1002 1003 1004 0
1101 1102 1103 1104 0
1201 1202 1203 1204 0
1301 1302 1303 1304 0
1401 1402 1403 1404 0
1501 1502 1503 1504 0
001 401 801 1201 0
002 402 802 1202 0
003 403 803 1203 0
004 404 804 1204 0
101 501 901 1301 0
102 502 902 1302 0
103 503 903 1303 0
104 504 904 1304 0
201 601 1001 1401 0
202 602 1002 1402 0
203 603 1003 1403 0
204 604 1004 1404 0
301 701 1101 1501 0
302 702 1102 1502 0
303 703 1103 1503 0
304 704 1104 1504 0
001 101 201 301 0
002 102 202 302 0
003 103 203 303 0
004 104 204 304 0
401 501 601 701 0
402 502 602 702 0
403 503 603 703 0
404 504 604 704 0
801 901 1001 1101 0
802 902 1002 1102 0
803 903 1003 1103 0
804 904 1004 1104 0
1201 1301 1401 1501 0
1202 1302 1402 1502 0
1203 1303 1403 1503 0
1204 1304 1404 1504 0
001 002 003 004 0
101 102 103 104 0
401 402 403 404 0
501 502 503 504 0
201 202 203 204 0
301 302 303 304 0
601 602 603 604 0
701 702 703 704 0
801 802 803 804 0
901 902 903 904 0
1201 1202 1203 1204 0
1301 1302 1303 1304 0
1001 1002 1003 1004 0
1101 1102 1103 1104 0
1401 1402 1403 1404 0
1501 1502 1503 1504 0
-001 -002 0
-001 -003 0
-001 -004 0
-002 -003 0
-002 -004 0
-003 -004 0
-101 -102 0
-101 -103 0
-101 -104 0
-102 -103 0
-102 -104 0
-103 -104 0
-201 -202 0
-201 -203 0
-201 -204 0
-202 -203 0
-202 -204 0
-203 -204 0
-301 -302 0
-301 -303 0
-301 -304 0
-302 -303 0
-302 -304 0
-303 -304 0
-401 -402 0
-401 -403 0
-401 -404 0
-402 -403 0
-402 -404 0
-403 -404 0
-501 -502 0
-501 -503 0
-501 -504 0
-502 -503 0
-502 -504 0
-503 -504 0
-601 -602 0
-601 -603 0
-601 -604 0
-602 -603 0
-602 -604 0
-603 -604 0
-701 -702 0
-701 -703 0
-701 -704 0
-702 -703 0
-702 -704 0
-703 -704 0
-801 -802 0
-801 -803 0
-801 -804 0
-802 -803 0
-802 -804 0
-803 -804 0
-901 -902 0
-901 -903 0
-901 -904 0
-902 -903 0
-902 -904 0
-903 -904 0
-1001 -1002 0
-1001 -1003 0
-1001 -1004 0
-1002 -1003 0
-1002 -1004 0
-1003 -1004 0
-1101 -1102 0
-1101 -1103 0
-1101 -1104 0
-1102 -1103 0
-1102 -1104 0
-1103 -1104 0
-1201 -1202 0
-1201 -1203 0
-1201 -1204 0
-1202 -1203 0
-1202 -1204 0
-1203 -1204 0
-1301 -1302 0
-1301 -1303 0
-1301 -1304 0
-1302 -1303 0
-1302 -1304 0
-1303 -1304 0
-1401 -1402 0
-1401 -1403 0
-1401 -1404 0
-1402 -1403 0
-1402 -1404 0
-1403 -1404 0
-1501 -1502 0
-1501 -1503 0
-1501 -1504 0
-1502 -1503 0
-1502 -1504 0
-1503 -1504 0
-001 -101 0
-001 -201 0
-001 -301 0
-101 -201 0
-101 -301 0
-201 -301 0
-002 -102 0
-002 -202 0
-002 -302 0
-102 -202 0
-102 -302 0
-202 -302 0
-003 -103 0
-003 -203 0
-003 -303 0
-103 -203 0
-103 -303 0
-203 -303 0
-004 -104 0
-004 -204 0
-004 -304 0
-104 -204 0
-104 -304 0
-204 -304 0
-401 -501 0
-401 -601 0
-401 -701 0
-501 -601 0
-501 -701 0
-601 -701 0
-402 -502 0
-402 -602 0
-402 -702 0
-502 -602 0
-502 -702 0
-602 -702 0
-403 -503 0
-403 -603 0
-403 -703 0
-503 -603 0
-503 -703 0
-603 -703 0
-404 -504 0
-404 -604 0
-404 -704 0
-504 -604 0
-504 -704 0
-604 -704 0
-801 -901 0
-801 -1001 0
-801 -1101 0
-901 -1001 0
-901 -1101 0
-1001 -1101 0
-802 -902 0
-802 -1002 0
-802 -1102 0
-902 -1002 0
-902 -1102 0
-1002 -1102 0
-803 -903 0
-803 -1003 0
-803 -1103 0
-903 -1003 0
-903 -1103 0
-1003 -1103 0
-804 -904 0
-804 -1004 0
-804 -1104 0
-904 -1004 0
-904 -1104 0
-1004 -1104 0
-1201 -1301 0
-1201 -1401 0
-1201 -1501 0
-1301 -1401 0
-1301 -1501 0
-1401 -1501 0
-1202 -1302 0
-1202 -1402 0
-1202 -1502 0
-1302 -1402 0
-1302 -1502 0
-1402 -1502 0
-1203 -1303 0
-1203 -1403 0
-1203 -1503 0
-1303 -1403 0
-1303 -1503 0
-1403 -1503 0
-1204 -1304 0
-1204 -1404 0
-1204 -1504 0
-1304 -1404 0
-1304 -1504 0
-1404 -1504 0
-001 -401 0
-001 -801 0
-001 -1201 0
-401 -801 0
-401 -1201 0
-801 -1201 0
-002 -402 0
-002 -802 0
-002 -1202 0
-402 -802 0
-402 -1202 0
-802 -1202 0
-003 -403 0
-003 -803 0
-003 -1203 0
-403 -803 0
-403 -1203 0
-803 -1203 0
-004 -404 0
-004 -804 0
-004 -1204 0
-404 -804 0
-404 -1204 0
-804 -1204 0
-101 -501 0
-101 -901 0
-101 -1301 0
-501 -901 0
-501 -1301 0
-901 -1301 0
-102 -502 0
-102 -902 0
-102 -1302 0
-502 -902 0
-502 -1302 0
-902 -1302 0
-103 -503 0
-103 -903 0
-103 -1303 0
-503 -903 0
-503 -1303 0
-903 -1303 0
-104 -504 0
-104 -904 0
-104 -1304 0
-504 -904 0
-504 -1304 0
-904 -1304 0
-201 -601 0
-201 -1001 0
-201 -1401 0
-601 -1001 0
-601 -1401 0
-1001 -1401 0
-202 -602 0
-202 -1002 0
-202 -1402 0
-602 -1002 0
-602 -1402 0
-1002 -1402 0
-203 -603 0
-203 -1003 0
-203 -1403 0
-603 -1003 0
-603 -1403 0
-1003 -1403 0
-204 -604 0
-204 -1004 0
-204 -1404 0
-604 -1004 0
-604 -1404 0
-1004 -1404 0
-301 -701 0
-301 -1101 0
-301 -1501 0
-701 -1101 0
-701 -1501 0
-1101 -1501 0
-302 -702 0
-302 -1102 0
-302 -1502 0
-702 -1102 0
-702 -1502 0
-1102 -1502 0
-303 -703 0
-303 -1103 0
-303 -1503 0
-703 -1103 0
-703 -1503 0
-1103 -1503 0
-304 -704 0
-304 -1104 0
-304 -1504 0
-704 -1104 0
-704 -1504 0
-1104 -1504 0
-001 -101 0
-001 -401 0
-001 -501 0
-101 -001 0
-101 -401 0
-101 -501 0
-401 -001 0
-401 -101 0
-401 -501 0
-501 -001 0
-501 -101 0
-501 -401 0
-002 -102 0
-002 -402 0
-002 -502 0
-102 -002 0
-102 -402 0
-102 -502 0
-402 -002 0
-402 -102 0
-402 -502 0
-502 -002 0
-502 -102 0
-502 -402 0
-003 -103 0
-003 -403 0
-003 -503 0
-103 -003 0
-103 -403 0
-103 -503 0
-403 -003 0
-403 -103 0
-403 -503 0
-503 -003 0
-503 -103 0
-503 -403 0
-004 -104 0
-004 -404 0
-004 -504 0
-104 -004 0
-104 -404 0
-104 -504 0
-404 -004 0
-404 -104 0
-404 -504 0
-504 -004 0
-504 -104 0
-504 -404 0
-201 -301 0
-201 -601 0
-201 -701 0
-301 -201 0
-301 -601 0
-301 -701 0
-601 -201 0
-601 -301 0
-601 -701 0
-701 -201 0
-701 -301 0
-701 -601 0
-202 -302 0
-202 -602 0
-202 -702 0
-302 -202 0
-302 -602 0
-302 -702 0
-602 -202 0
-602 -302 0
-602 -702 0
-702 -202 0
-702 -302 0
-702 -602 0
-203 -303 0
-203 -603 0
-203 -703 0
-303 -203 0
-303 -603 0
-303 -703 0
-603 -203 0
-603 -303 0
-603 -703 0
-703 -203 0
-703 -303 0
-703 -603 0
-204 -304 0
-204 -604 0
-204 -704 0
-304 -204 0
-304 -604 0
-304 -704 0
-604 -204 0
-604 -304 0
-604 -704 0
-704 -204 0
-704 -304 0
-704 -604 0
-801 -901 0
-801 -1201 0
-801 -1301 0
-901 -801 0
-901 -1201 0
-901 -1301 0
-1201 -801 0
-1201 -901 0
-1201 -1301 0
-1301 -801 0
-1301 -901 0
-1301 -1201 0
-802 -902 0
-802 -1202 0
-802 -1302 0
-902 -802 0
-902 -1202 0
-902 -1302 0
-1202 -802 0
-1202 -902 0
-1202 -1302 0
-1302 -802 0
-1302 -902 0
-1302 -1202 0
-803 -903 0
-803 -1203 0
-803 -1303 0
-903 -803 0
-903 -1203 0
-903 -1303 0
-1203 -803 0
-1203 -903 0
-1203 -1303 0
-1303 -803 0
-1303 -903 0
-1303 -1203 0
-804 -904 0
-804 -1204 0
-804 -1304 0
-904 -804 0
-904 -1204 0
-904 -1304 0
-1204 -804 0
-1204 -904 0
-1204 -1304 0
-1304 -804 0
-1304 -904 0
-1304 -1204 0
-1001 -1101 0
-1001 -1401 0
-1001 -1501 0
-1101 -1001 0
-1101 -1401 0
-1101 -1501 0
-1401 -1001 0
-1401 -1101 0
-1401 -1501 0
-1501 -1001 0
-1501 -1101 0
-1501 -1401 0
-1002 -1102 0
-1002 -1402 0
-1002 -1502 0
-1102 -1002 0
-1102 -1402 0
-1102 -1502 0
-1402 -1002 0
-1402 -1102 0
-1402 -1502 0
-1502 -1002 0
-1502 -1102 0
-1502 -1402 0
-1003 -1103 0
-1003 -1403 0
-1003 -1503 0
-1103 -1003 0
-1103 -1403 0
-1103 -1503 0
-1403 -1003 0
-1403 -1103 0
-1403 -1503 0
-1503 -1003 0
-1503 -1103 0
-1503 -1403 0
-1004 -1104 0
-1004 -1404 0
-1004 -1504 0
-1104 -1004 0
-1104 -1404 0
-1104 -1504 0
-1404 -1004 0
-1404 -1104 0
-1404 -1504 0
-1504 -1004 0
-1504 -1104 0
-1504 -1404 0
102 0
603 0
1402 0
-003 -102 -201 -304 -401 -504 -603 -702 -802 -901 -1004 -1103 -1204 -1303 -1402 -1501 0
